c 1 CONFIG_LS
c 2 CONFIG_SORT_BIG
c 3 CONFIG_DHCPD
c 4 CONFIG_HELP
c 5 CONFIG_CHCON
c 6 CONFIG_SYSLOGD
c 7 CONFIG_TIME
c 8 CONFIG_W
c 9 CONFIG_TAIL
c 10 CONFIG_KLOGD_SOURCE_RING_BUFFER
c 11 CONFIG_SULOGIN
c 12 CONFIG_FGREP
c 13 CONFIG_MDEV_CONF
c 14 CONFIG_LOAD_POLICY
c 15 CONFIG_UNSHARE
c 16 CONFIG_SLEEP_FLOAT
c 17 CONFIG_TOYBOX_UID_SYS
c 18 CONFIG_EGREP
c 19 CONFIG_ID
c 20 CONFIG_SETENFORCE
c 21 CONFIG_RESTORECON
c 22 CONFIG_HELP_EXTRAS
c 23 CONFIG_LOGIN
c 24 CONFIG_KILL
c 25 CONFIG_FSFREEZE
c 26 CONFIG_GREP
c 27 CONFIG_TOYBOX_ICONV
c 28 CONFIG_XARGS_PEDANTIC
c 29 CONFIG_CP_MORE
c 30 CONFIG_GZIP
c 31 CONFIG_MKE2FS_EXTENDED
c 32 CONFIG_WHO
c 33 CONFIG_TOYBOX_FIFREEZE
c 34 CONFIG_CP
c 35 CONFIG_LS_COLOR
c 36 CONFIG_TAIL_SEEK
c 37 CONFIG_RUNCON
c 38 CONFIG_LSPCI_TEXT
c 39 CONFIG_TOYBOX_LSM_NONE
c 40 CONFIG_XARGS
c 41 CONFIG_MKE2FS_GEN
c 42 CONFIG_CAT
c 43 CONFIG_TOYBOX_SHADOW
c 44 CONFIG_TOYBOX_SELINUX
c 45 CONFIG_KLOGD
c 46 CONFIG_MKE2FS
c 47 CONFIG_LSPCI
c 48 CONFIG_GZIP_D
c 49 CONFIG_ICONV
c 50 CONFIG_GETENFORCE
c 51 CONFIG_TOYBOX_FLOAT
c 52 CONFIG_TOYBOX_HELP
c 53 CONFIG_PASSWD
c 54 CONFIG_GUNZIP
c 55 CONFIG_FALLOCATE
c 56 CONFIG_TOYBOX_UID_USR
c 57 CONFIG_TOYBOX_CONTAINER
c 58 CONFIG_NETCAT_LISTEN
c 59 CONFIG_MKE2FS_LABEL
c 60 CONFIG_SEQ
c 61 CONFIG_MV_MORE
c 62 CONFIG_SORT_FLOAT
c 63 CONFIG_DECOMPRESS
c 64 CONFIG_SU
c 65 CONFIG_SORT
c 66 CONFIG_CD
c 67 CONFIG_ZCAT
c 68 CONFIG_TIMEOUT
c 69 CONFIG_LOGGER
c 70 CONFIG_ID_SELINUX
c 71 CONFIG_EXIT
c 72 CONFIG_NETCAT
c 73 CONFIG_MV
c 74 CONFIG_UPTIME
c 75 CONFIG_INSTALL
c 76 CONFIG_TOYBOX_SMACK
c 77 CONFIG_TOYBOX
c 78 CONFIG_MKE2FS_JOURNAL
c 79 CONFIG_TOYBOX_UTMPX
c 80 CONFIG_SLEEP
c 81 CONFIG_CAT_V
c 82 CONFIG_DEBUG_DHCP
c 83 CONFIG_TOYBOX_FALLOCATE
c 84 CONFIG_COMPRESS
c 85 CONFIG_KILLALL5
c 86 CONFIG_MDEV
c 87 CONFIG_TOYBOX_HELP_DASHDASH
c 88 __Root__
p cnf 88 171
88 0
-77 88 0
-12 88 0
-26 88 0
-34 88 0
-29 88 0
-44 88 0
-39 88 0
-76 88 0
-43 88 0
-64 88 0
-23 88 0
-45 88 0
-10 88 0
-68 88 0
-51 88 0
-79 88 0
-54 88 0
-63 88 0
-18 88 0
-37 88 0
-46 88 0
-78 88 0
-81 88 0
-42 88 0
-1 88 0
-35 88 0
-50 88 0
-73 88 0
-61 88 0
-56 88 0
-74 88 0
-53 88 0
-30 88 0
-48 88 0
-59 88 0
-27 88 0
-32 88 0
-7 88 0
-49 88 0
-2 88 0
-62 88 0
-17 88 0
-66 88 0
-3 88 0
-82 88 0
-75 88 0
-5 88 0
-72 88 0
-58 88 0
-22 88 0
-4 88 0
-70 88 0
-83 88 0
-55 88 0
-52 88 0
-87 88 0
-38 88 0
-47 88 0
-65 88 0
-84 88 0
-19 88 0
-80 88 0
-16 88 0
-67 88 0
-8 88 0
-40 88 0
-28 88 0
-69 88 0
-6 88 0
-57 88 0
-25 88 0
-33 88 0
-24 88 0
-85 88 0
-11 88 0
-15 88 0
-71 88 0
-20 88 0
-13 88 0
-86 88 0
-21 88 0
-60 88 0
-41 88 0
-9 88 0
-36 88 0
-31 88 0
-14 88 0
77 0
12 -26 0
-29 34 0
39 44 76 0
43 -64 0
-23 43 0
-10 45 0
51 -68 0
79 0
-54 63 0
18 -26 0
-37 44 0
46 -78 0
42 -81 0
1 -35 0
44 -50 0
-61 73 0
56 0
-74 79 0
43 -53 0
30 -48 0
46 -59 0
27 0
-32 79 0
-7 51 0
27 -49 0
-48 63 0
29 -61 0
-39 -44 0
-2 -51 62 0
17 0
-66 0
3 -82 0
29 34 -75 0
-5 44 0
-44 -76 0
-58 72 0
2 -62 0
4 -22 77 0
44 -70 0
-55 83 0
52 -87 0
-38 47 0
-2 65 0
-39 -76 0
34 -73 0
-30 84 0
-4 52 0
19 -70 0
-19 -44 70 0
16 -51 -80 0
63 -67 0
83 0
-8 79 0
-22 77 0
51 -62 0
-28 40 0
-30 48 -63 0
-12 26 0
6 -69 0
57 0
29 -75 0
-25 33 0
34 -75 0
24 -85 0
-11 43 0
-15 57 0
-71 0
-20 44 0
-13 86 0
-16 51 0
-16 80 0
4 -22 0
-18 26 0
-29 61 -73 0
-21 44 0
51 -60 0
33 0
-41 46 0
43 0
9 -36 0
-31 46 0
-14 44 0
